benchmark/results/graph__10-1000-0.10-02_2/error_log/graph__10-1000-0.10-02_2_Quinton_Benders_master_ERRORLOG.lp
\ This file has been generated by DOcplex
\ ENCODING=ISO-8859-1
\Problem name: Quinton Benders_master

Maximize
 obj: z
Subject To
 c1: m_a0_proc_0 + m_a0_proc_1 = 1
 c2: m_a1_proc_0 = 1
 c3: m_a2_proc_0 + m_a2_proc_1 = 1
 c4: m_a3_proc_0 + m_a3_proc_1 = 1
 c5: m_a4_proc_0 + m_a4_proc_1 = 1
 c6: m_a5_proc_0 + m_a5_proc_1 = 1
 c7: m_a6_proc_0 + m_a6_proc_1 = 1
 c8: m_a7_proc_0 + m_a7_proc_1 = 1
 c9: m_a8_proc_1 = 1
 c10: m_a9_proc_0 = 1
 c11: K_a0_a1 + K_a1_a0 = 1
 c12: K_a0_a1 + K_a1_a0 = 1
 c13: K_a0_a2 + K_a2_a0 = 1
 c14: K_a0_a2 + K_a2_a0 = 1
 c15: K_a0_a3 + K_a3_a0 = 1
 c16: K_a0_a3 + K_a3_a0 = 1
 c17: K_a0_a4 + K_a4_a0 = 1
 c18: K_a0_a4 + K_a4_a0 = 1
 c19: K_a0_a5 + K_a5_a0 = 1
 c20: K_a0_a5 + K_a5_a0 = 1
 c21: K_a0_a6 + K_a6_a0 = 1
 c22: K_a0_a6 + K_a6_a0 = 1
 c23: K_a0_a7 + K_a7_a0 = 1
 c24: K_a0_a7 + K_a7_a0 = 1
 c25: K_a0_a8 + K_a8_a0 = 1
 c26: K_a0_a8 + K_a8_a0 = 1
 c27: K_a0_a9 + K_a9_a0 = 1
 c28: K_a0_a9 + K_a9_a0 = 1
 c29: K_a1_a2 + K_a2_a1 = 1
 c30: K_a1_a2 + K_a2_a1 = 1
 c31: K_a1_a3 + K_a3_a1 = 1
 c32: K_a1_a3 + K_a3_a1 = 1
 c33: K_a1_a4 + K_a4_a1 = 1
 c34: K_a1_a4 + K_a4_a1 = 1
 c35: K_a1_a5 + K_a5_a1 = 1
 c36: K_a1_a5 + K_a5_a1 = 1
 c37: K_a1_a6 + K_a6_a1 = 1
 c38: K_a1_a6 + K_a6_a1 = 1
 c39: K_a1_a7 + K_a7_a1 = 1
 c40: K_a1_a7 + K_a7_a1 = 1
 c41: K_a1_a9 + K_a9_a1 = 1
 c42: K_a1_a9 + K_a9_a1 = 1
 c43: K_a2_a3 + K_a3_a2 = 1
 c44: K_a2_a3 + K_a3_a2 = 1
 c45: K_a2_a4 + K_a4_a2 = 1
 c46: K_a2_a4 + K_a4_a2 = 1
 c47: K_a2_a5 + K_a5_a2 = 1
 c48: K_a2_a5 + K_a5_a2 = 1
 c49: K_a2_a6 + K_a6_a2 = 1
 c50: K_a2_a6 + K_a6_a2 = 1
 c51: K_a2_a7 + K_a7_a2 = 1
 c52: K_a2_a7 + K_a7_a2 = 1
 c53: K_a2_a8 + K_a8_a2 = 1
 c54: K_a2_a8 + K_a8_a2 = 1
 c55: K_a2_a9 + K_a9_a2 = 1
 c56: K_a2_a9 + K_a9_a2 = 1
 c57: K_a3_a4 + K_a4_a3 = 1
 c58: K_a3_a4 + K_a4_a3 = 1
 c59: K_a3_a5 + K_a5_a3 = 1
 c60: K_a3_a5 + K_a5_a3 = 1
 c61: K_a3_a6 + K_a6_a3 = 1
 c62: K_a3_a6 + K_a6_a3 = 1
 c63: K_a3_a7 + K_a7_a3 = 1
 c64: K_a3_a7 + K_a7_a3 = 1
 c65: K_a3_a8 + K_a8_a3 = 1
 c66: K_a3_a8 + K_a8_a3 = 1
 c67: K_a3_a9 + K_a9_a3 = 1
 c68: K_a3_a9 + K_a9_a3 = 1
 c69: K_a4_a5 + K_a5_a4 = 1
 c70: K_a4_a5 + K_a5_a4 = 1
 c71: K_a4_a6 + K_a6_a4 = 1
 c72: K_a4_a6 + K_a6_a4 = 1
 c73: K_a4_a7 + K_a7_a4 = 1
 c74: K_a4_a7 + K_a7_a4 = 1
 c75: K_a4_a8 + K_a8_a4 = 1
 c76: K_a4_a8 + K_a8_a4 = 1
 c77: K_a4_a9 + K_a9_a4 = 1
 c78: K_a4_a9 + K_a9_a4 = 1
 c79: K_a5_a6 + K_a6_a5 = 1
 c80: K_a5_a6 + K_a6_a5 = 1
 c81: K_a5_a7 + K_a7_a5 = 1
 c82: K_a5_a7 + K_a7_a5 = 1
 c83: K_a5_a8 + K_a8_a5 = 1
 c84: K_a5_a8 + K_a8_a5 = 1
 c85: K_a5_a9 + K_a9_a5 = 1
 c86: K_a5_a9 + K_a9_a5 = 1
 c87: K_a6_a7 + K_a7_a6 = 1
 c88: K_a6_a7 + K_a7_a6 = 1
 c89: K_a6_a8 + K_a8_a6 = 1
 c90: K_a6_a8 + K_a8_a6 = 1
 c91: K_a6_a9 + K_a9_a6 = 1
 c92: K_a6_a9 + K_a9_a6 = 1
 c93: K_a7_a8 + K_a8_a7 = 1
 c94: K_a7_a8 + K_a8_a7 = 1
 c95: K_a7_a9 + K_a9_a7 = 1
 c96: K_a7_a9 + K_a9_a7 = 1
 c97: z <= 99999999989999992832
 c98: - 1296 m_a0_proc_0 + w_a8 - w_a0 >= -1295.935627982536
 c99: - 1296 m_a0_proc_0 + w_a3 - w_a0 >= -1295.935627982536
 c100: - 1296 m_a0_proc_0 + w_a6 - w_a0 >= -1295.935627982536
 c101: K_a0_a1 - 1296 m_a0_proc_0 - 1296 m_a1_proc_0 + w_a1 - w_a0 >= 
       -2591.935627982537
 c102: K_a0_a2 - 1296 m_a0_proc_0 - 1296 m_a2_proc_0 + w_a2 - w_a0 >= 
       -2591.935627982537
 c103: K_a0_a3 - 1296 m_a0_proc_0 - 1296 m_a3_proc_0 + w_a3 - w_a0 >= 
       -2591.935627982537
 c104: K_a0_a4 - 1296 m_a0_proc_0 - 1296 m_a4_proc_0 + w_a4 - w_a0 >= 
       -2591.935627982537
 c105: K_a0_a5 - 1296 m_a0_proc_0 - 1296 m_a5_proc_0 + w_a5 - w_a0 >= 
       -2591.935627982537
 c106: K_a0_a6 - 1296 m_a0_proc_0 - 1296 m_a6_proc_0 + w_a6 - w_a0 >= 
       -2591.935627982537
 c107: K_a0_a7 - 1296 m_a0_proc_0 - 1296 m_a7_proc_0 + w_a7 - w_a0 >= 
       -2591.935627982537
 c108: K_a0_a9 - 1296 m_a0_proc_0 - 1296 m_a9_proc_0 + w_a9 - w_a0 >= 
       -2591.935627982537
 c109: - 1296 m_a0_proc_1 + w_a8 - w_a0 >= -1295.879683216570
 c110: - 1296 m_a0_proc_1 + w_a3 - w_a0 >= -1295.879683216570
 c111: - 1296 m_a0_proc_1 + w_a6 - w_a0 >= -1295.879683216570
 c112: K_a0_a2 - 1296 m_a0_proc_1 - 1296 m_a2_proc_1 + w_a2 - w_a0 >= 
       -2591.879683216570
 c113: K_a0_a3 - 1296 m_a0_proc_1 - 1296 m_a3_proc_1 + w_a3 - w_a0 >= 
       -2591.879683216570
 c114: K_a0_a4 - 1296 m_a0_proc_1 - 1296 m_a4_proc_1 + w_a4 - w_a0 >= 
       -2591.879683216570
 c115: K_a0_a5 - 1296 m_a0_proc_1 - 1296 m_a5_proc_1 + w_a5 - w_a0 >= 
       -2591.879683216570
 c116: K_a0_a6 - 1296 m_a0_proc_1 - 1296 m_a6_proc_1 + w_a6 - w_a0 >= 
       -2591.879683216570
 c117: K_a0_a7 - 1296 m_a0_proc_1 - 1296 m_a7_proc_1 + w_a7 - w_a0 >= 
       -2591.879683216570
 c118: K_a0_a8 - 1296 m_a0_proc_1 - 1296 m_a8_proc_1 + w_a8 - w_a0 >= 
       -2591.879683216570
 c119: - 1296 m_a1_proc_0 + w_a0 - w_a1 >= -1296.971875317291
 c120: - 1296 m_a1_proc_0 + w_a2 - w_a1 >= -1296.971875317291
 c121: K_a1_a0 - 1296 m_a0_proc_0 - 1296 m_a1_proc_0 + w_a0 - w_a1 >= 
       -2591.971875317291
 c122: K_a1_a2 - 1296 m_a1_proc_0 - 1296 m_a2_proc_0 + w_a2 - w_a1 >= 
       -2591.971875317291
 c123: K_a1_a3 - 1296 m_a1_proc_0 - 1296 m_a3_proc_0 + w_a3 - w_a1 >= 
       -2591.971875317291
 c124: K_a1_a4 - 1296 m_a1_proc_0 - 1296 m_a4_proc_0 + w_a4 - w_a1 >= 
       -2591.971875317291
 c125: K_a1_a5 - 1296 m_a1_proc_0 - 1296 m_a5_proc_0 + w_a5 - w_a1 >= 
       -2591.971875317291
 c126: K_a1_a6 - 1296 m_a1_proc_0 - 1296 m_a6_proc_0 + w_a6 - w_a1 >= 
       -2591.971875317291
 c127: K_a1_a7 - 1296 m_a1_proc_0 - 1296 m_a7_proc_0 + w_a7 - w_a1 >= 
       -2591.971875317291
 c128: K_a1_a9 - 1296 m_a1_proc_0 - 1296 m_a9_proc_0 + w_a9 - w_a1 >= 
       -2591.971875317291
 c129: - 1296 m_a2_proc_0 + w_a1 - w_a2 >= -1295.933292720073
 c130: - 1296 m_a2_proc_0 + w_a4 - w_a2 >= -1295.933292720073
 c131: - 1296 m_a2_proc_0 + w_a0 - w_a2 >= -1296.933292720073
 c132: K_a2_a0 - 1296 m_a0_proc_0 - 1296 m_a2_proc_0 + w_a0 - w_a2 >= 
       -2591.933292720073
 c133: K_a2_a1 - 1296 m_a1_proc_0 - 1296 m_a2_proc_0 + w_a1 - w_a2 >= 
       -2591.933292720073
 c134: K_a2_a3 - 1296 m_a2_proc_0 - 1296 m_a3_proc_0 + w_a3 - w_a2 >= 
       -2591.933292720073
 c135: K_a2_a4 - 1296 m_a2_proc_0 - 1296 m_a4_proc_0 + w_a4 - w_a2 >= 
       -2591.933292720073
 c136: K_a2_a5 - 1296 m_a2_proc_0 - 1296 m_a5_proc_0 + w_a5 - w_a2 >= 
       -2591.933292720073
 c137: K_a2_a6 - 1296 m_a2_proc_0 - 1296 m_a6_proc_0 + w_a6 - w_a2 >= 
       -2591.933292720073
 c138: K_a2_a7 - 1296 m_a2_proc_0 - 1296 m_a7_proc_0 + w_a7 - w_a2 >= 
       -2591.933292720073
 c139: K_a2_a9 - 1296 m_a2_proc_0 - 1296 m_a9_proc_0 + w_a9 - w_a2 >= 
       -2591.933292720073
 c140: - 1296 m_a2_proc_1 + w_a1 - w_a2 >= -1295.868413036857
 c141: - 1296 m_a2_proc_1 + w_a4 - w_a2 >= -1295.868413036857
 c142: - 1296 m_a2_proc_1 + w_a0 - w_a2 >= -1296.868413036857
 c143: K_a2_a0 - 1296 m_a0_proc_1 - 1296 m_a2_proc_1 + w_a0 - w_a2 >= 
       -2591.868413036857
 c144: K_a2_a3 - 1296 m_a2_proc_1 - 1296 m_a3_proc_1 + w_a3 - w_a2 >= 
       -2591.868413036857
 c145: K_a2_a4 - 1296 m_a2_proc_1 - 1296 m_a4_proc_1 + w_a4 - w_a2 >= 
       -2591.868413036857
 c146: K_a2_a5 - 1296 m_a2_proc_1 - 1296 m_a5_proc_1 + w_a5 - w_a2 >= 
       -2591.868413036857
 c147: K_a2_a6 - 1296 m_a2_proc_1 - 1296 m_a6_proc_1 + w_a6 - w_a2 >= 
       -2591.868413036857
 c148: K_a2_a7 - 1296 m_a2_proc_1 - 1296 m_a7_proc_1 + w_a7 - w_a2 >= 
       -2591.868413036857
 c149: K_a2_a8 - 1296 m_a2_proc_1 - 1296 m_a8_proc_1 + w_a8 - w_a2 >= 
       -2591.868413036857
 c150: - 1296 m_a3_proc_0 + w_a1 - w_a3 >= -1295.891257995736
 c151: - 1296 m_a3_proc_0 + w_a5 - w_a3 >= -1295.891257995736
 c152: - 1296 m_a3_proc_0 + w_a6 - w_a3 >= -1296.891257995736
 c153: K_a3_a0 - 1296 m_a0_proc_0 - 1296 m_a3_proc_0 + w_a0 - w_a3 >= 
       -2591.891257995735
 c154: K_a3_a1 - 1296 m_a1_proc_0 - 1296 m_a3_proc_0 + w_a1 - w_a3 >= 
       -2591.891257995735
 c155: K_a3_a2 - 1296 m_a2_proc_0 - 1296 m_a3_proc_0 + w_a2 - w_a3 >= 
       -2591.891257995735
 c156: K_a3_a4 - 1296 m_a3_proc_0 - 1296 m_a4_proc_0 + w_a4 - w_a3 >= 
       -2591.891257995735
 c157: K_a3_a5 - 1296 m_a3_proc_0 - 1296 m_a5_proc_0 + w_a5 - w_a3 >= 
       -2591.891257995735
 c158: K_a3_a6 - 1296 m_a3_proc_0 - 1296 m_a6_proc_0 + w_a6 - w_a3 >= 
       -2591.891257995735
 c159: K_a3_a7 - 1296 m_a3_proc_0 - 1296 m_a7_proc_0 + w_a7 - w_a3 >= 
       -2591.891257995735
 c160: K_a3_a9 - 1296 m_a3_proc_0 - 1296 m_a9_proc_0 + w_a9 - w_a3 >= 
       -2591.891257995735
 c161: - 1296 m_a3_proc_1 + w_a1 - w_a3 >= -1295.918062747487
 c162: - 1296 m_a3_proc_1 + w_a5 - w_a3 >= -1295.918062747487
 c163: - 1296 m_a3_proc_1 + w_a6 - w_a3 >= -1296.918062747487
 c164: K_a3_a0 - 1296 m_a0_proc_1 - 1296 m_a3_proc_1 + w_a0 - w_a3 >= 
       -2591.918062747487
 c165: K_a3_a2 - 1296 m_a2_proc_1 - 1296 m_a3_proc_1 + w_a2 - w_a3 >= 
       -2591.918062747487
 c166: K_a3_a4 - 1296 m_a3_proc_1 - 1296 m_a4_proc_1 + w_a4 - w_a3 >= 
       -2591.918062747487
 c167: K_a3_a5 - 1296 m_a3_proc_1 - 1296 m_a5_proc_1 + w_a5 - w_a3 >= 
       -2591.918062747487
 c168: K_a3_a6 - 1296 m_a3_proc_1 - 1296 m_a6_proc_1 + w_a6 - w_a3 >= 
       -2591.918062747487
 c169: K_a3_a7 - 1296 m_a3_proc_1 - 1296 m_a7_proc_1 + w_a7 - w_a3 >= 
       -2591.918062747487
 c170: K_a3_a8 - 1296 m_a3_proc_1 - 1296 m_a8_proc_1 + w_a8 - w_a3 >= 
       -2591.918062747487
 c171: - 1296 m_a4_proc_0 + w_a7 - w_a4 >= -1295.905777236268
 c172: - 1296 m_a4_proc_0 + w_a9 - w_a4 >= -1296.905777236268
 c173: - 1296 m_a4_proc_0 + w_a0 - w_a4 >= -1296.905777236268
 c174: K_a4_a0 - 1296 m_a0_proc_0 - 1296 m_a4_proc_0 + w_a0 - w_a4 >= 
       -2591.905777236268
 c175: K_a4_a1 - 1296 m_a1_proc_0 - 1296 m_a4_proc_0 + w_a1 - w_a4 >= 
       -2591.905777236268
 c176: K_a4_a2 - 1296 m_a2_proc_0 - 1296 m_a4_proc_0 + w_a2 - w_a4 >= 
       -2591.905777236268
 c177: K_a4_a3 - 1296 m_a3_proc_0 - 1296 m_a4_proc_0 + w_a3 - w_a4 >= 
       -2591.905777236268
 c178: K_a4_a5 - 1296 m_a4_proc_0 - 1296 m_a5_proc_0 + w_a5 - w_a4 >= 
       -2591.905777236268
 c179: K_a4_a6 - 1296 m_a4_proc_0 - 1296 m_a6_proc_0 + w_a6 - w_a4 >= 
       -2591.905777236268
 c180: K_a4_a7 - 1296 m_a4_proc_0 - 1296 m_a7_proc_0 + w_a7 - w_a4 >= 
       -2591.905777236268
 c181: K_a4_a9 - 1296 m_a4_proc_0 - 1296 m_a9_proc_0 + w_a9 - w_a4 >= 
       -2591.905777236268
 c182: - 1296 m_a4_proc_1 + w_a7 - w_a4 >= -1295.891867194639
 c183: - 1296 m_a4_proc_1 + w_a9 - w_a4 >= -1296.891867194639
 c184: - 1296 m_a4_proc_1 + w_a0 - w_a4 >= -1296.891867194639
 c185: K_a4_a0 - 1296 m_a0_proc_1 - 1296 m_a4_proc_1 + w_a0 - w_a4 >= 
       -2591.891867194639
 c186: K_a4_a2 - 1296 m_a2_proc_1 - 1296 m_a4_proc_1 + w_a2 - w_a4 >= 
       -2591.891867194639
 c187: K_a4_a3 - 1296 m_a3_proc_1 - 1296 m_a4_proc_1 + w_a3 - w_a4 >= 
       -2591.891867194639
 c188: K_a4_a5 - 1296 m_a4_proc_1 - 1296 m_a5_proc_1 + w_a5 - w_a4 >= 
       -2591.891867194639
 c189: K_a4_a6 - 1296 m_a4_proc_1 - 1296 m_a6_proc_1 + w_a6 - w_a4 >= 
       -2591.891867194639
 c190: K_a4_a7 - 1296 m_a4_proc_1 - 1296 m_a7_proc_1 + w_a7 - w_a4 >= 
       -2591.891867194639
 c191: K_a4_a8 - 1296 m_a4_proc_1 - 1296 m_a8_proc_1 + w_a8 - w_a4 >= 
       -2591.891867194639
 c192: - 1296 m_a5_proc_0 + w_a2 - w_a5 >= -1295.886181338207
 c193: K_a5_a0 - 1296 m_a0_proc_0 - 1296 m_a5_proc_0 + w_a0 - w_a5 >= 
       -2591.886181338207
 c194: K_a5_a1 - 1296 m_a1_proc_0 - 1296 m_a5_proc_0 + w_a1 - w_a5 >= 
       -2591.886181338207
 c195: K_a5_a2 - 1296 m_a2_proc_0 - 1296 m_a5_proc_0 + w_a2 - w_a5 >= 
       -2591.886181338207
 c196: K_a5_a3 - 1296 m_a3_proc_0 - 1296 m_a5_proc_0 + w_a3 - w_a5 >= 
       -2591.886181338207
 c197: K_a5_a4 - 1296 m_a4_proc_0 - 1296 m_a5_proc_0 + w_a4 - w_a5 >= 
       -2591.886181338207
 c198: K_a5_a6 - 1296 m_a5_proc_0 - 1296 m_a6_proc_0 + w_a6 - w_a5 >= 
       -2591.886181338207
 c199: K_a5_a7 - 1296 m_a5_proc_0 - 1296 m_a7_proc_0 + w_a7 - w_a5 >= 
       -2591.886181338207
 c200: K_a5_a9 - 1296 m_a5_proc_0 - 1296 m_a9_proc_0 + w_a9 - w_a5 >= 
       -2591.886181338207
 c201: - 1296 m_a5_proc_1 + w_a2 - w_a5 >= -1295.932074322266
 c202: K_a5_a0 - 1296 m_a0_proc_1 - 1296 m_a5_proc_1 + w_a0 - w_a5 >= 
       -2591.932074322266
 c203: K_a5_a2 - 1296 m_a2_proc_1 - 1296 m_a5_proc_1 + w_a2 - w_a5 >= 
       -2591.932074322266
 c204: K_a5_a3 - 1296 m_a3_proc_1 - 1296 m_a5_proc_1 + w_a3 - w_a5 >= 
       -2591.932074322266
 c205: K_a5_a4 - 1296 m_a4_proc_1 - 1296 m_a5_proc_1 + w_a4 - w_a5 >= 
       -2591.932074322266
 c206: K_a5_a6 - 1296 m_a5_proc_1 - 1296 m_a6_proc_1 + w_a6 - w_a5 >= 
       -2591.932074322266
 c207: K_a5_a7 - 1296 m_a5_proc_1 - 1296 m_a7_proc_1 + w_a7 - w_a5 >= 
       -2591.932074322266
 c208: K_a5_a8 - 1296 m_a5_proc_1 - 1296 m_a8_proc_1 + w_a8 - w_a5 >= 
       -2591.932074322266
 c209: - 1296 m_a6_proc_0 + w_a3 - w_a6 >= -1295.879480150269
 c210: K_a6_a0 - 1296 m_a0_proc_0 - 1296 m_a6_proc_0 + w_a0 - w_a6 >= 
       -2591.879480150269
 c211: K_a6_a1 - 1296 m_a1_proc_0 - 1296 m_a6_proc_0 + w_a1 - w_a6 >= 
       -2591.879480150269
 c212: K_a6_a2 - 1296 m_a2_proc_0 - 1296 m_a6_proc_0 + w_a2 - w_a6 >= 
       -2591.879480150269
 c213: K_a6_a3 - 1296 m_a3_proc_0 - 1296 m_a6_proc_0 + w_a3 - w_a6 >= 
       -2591.879480150269
 c214: K_a6_a4 - 1296 m_a4_proc_0 - 1296 m_a6_proc_0 + w_a4 - w_a6 >= 
       -2591.879480150269
 c215: K_a6_a5 - 1296 m_a5_proc_0 - 1296 m_a6_proc_0 + w_a5 - w_a6 >= 
       -2591.879480150269
 c216: K_a6_a7 - 1296 m_a6_proc_0 - 1296 m_a7_proc_0 + w_a7 - w_a6 >= 
       -2591.879480150269
 c217: K_a6_a9 - 1296 m_a6_proc_0 - 1296 m_a9_proc_0 + w_a9 - w_a6 >= 
       -2591.879480150269
 c218: - 1296 m_a6_proc_1 + w_a3 - w_a6 >= -1295.955833079501
 c219: K_a6_a0 - 1296 m_a0_proc_1 - 1296 m_a6_proc_1 + w_a0 - w_a6 >= 
       -2591.955833079500
 c220: K_a6_a2 - 1296 m_a2_proc_1 - 1296 m_a6_proc_1 + w_a2 - w_a6 >= 
       -2591.955833079500
 c221: K_a6_a3 - 1296 m_a3_proc_1 - 1296 m_a6_proc_1 + w_a3 - w_a6 >= 
       -2591.955833079500
 c222: K_a6_a4 - 1296 m_a4_proc_1 - 1296 m_a6_proc_1 + w_a4 - w_a6 >= 
       -2591.955833079500
 c223: K_a6_a5 - 1296 m_a5_proc_1 - 1296 m_a6_proc_1 + w_a5 - w_a6 >= 
       -2591.955833079500
 c224: K_a6_a7 - 1296 m_a6_proc_1 - 1296 m_a7_proc_1 + w_a7 - w_a6 >= 
       -2591.955833079500
 c225: K_a6_a8 - 1296 m_a6_proc_1 - 1296 m_a8_proc_1 + w_a8 - w_a6 >= 
       -2591.955833079500
 c226: K_a7_a0 - 1296 m_a0_proc_0 - 1296 m_a7_proc_0 + w_a0 - w_a7 >= 
       -2591.886282871358
 c227: K_a7_a1 - 1296 m_a1_proc_0 - 1296 m_a7_proc_0 + w_a1 - w_a7 >= 
       -2591.886282871358
 c228: K_a7_a2 - 1296 m_a2_proc_0 - 1296 m_a7_proc_0 + w_a2 - w_a7 >= 
       -2591.886282871358
 c229: K_a7_a3 - 1296 m_a3_proc_0 - 1296 m_a7_proc_0 + w_a3 - w_a7 >= 
       -2591.886282871358
 c230: K_a7_a4 - 1296 m_a4_proc_0 - 1296 m_a7_proc_0 + w_a4 - w_a7 >= 
       -2591.886282871358
 c231: K_a7_a5 - 1296 m_a5_proc_0 - 1296 m_a7_proc_0 + w_a5 - w_a7 >= 
       -2591.886282871358
 c232: K_a7_a6 - 1296 m_a6_proc_0 - 1296 m_a7_proc_0 + w_a6 - w_a7 >= 
       -2591.886282871358
 c233: K_a7_a9 - 1296 m_a7_proc_0 - 1296 m_a9_proc_0 + w_a9 - w_a7 >= 
       -2591.886282871358
 c234: K_a7_a0 - 1296 m_a0_proc_1 - 1296 m_a7_proc_1 + w_a0 - w_a7 >= 
       -2591.897553051071
 c235: K_a7_a2 - 1296 m_a2_proc_1 - 1296 m_a7_proc_1 + w_a2 - w_a7 >= 
       -2591.897553051071
 c236: K_a7_a3 - 1296 m_a3_proc_1 - 1296 m_a7_proc_1 + w_a3 - w_a7 >= 
       -2591.897553051071
 c237: K_a7_a4 - 1296 m_a4_proc_1 - 1296 m_a7_proc_1 + w_a4 - w_a7 >= 
       -2591.897553051071
 c238: K_a7_a5 - 1296 m_a5_proc_1 - 1296 m_a7_proc_1 + w_a5 - w_a7 >= 
       -2591.897553051071
 c239: K_a7_a6 - 1296 m_a6_proc_1 - 1296 m_a7_proc_1 + w_a6 - w_a7 >= 
       -2591.897553051071
 c240: K_a7_a8 - 1296 m_a7_proc_1 - 1296 m_a8_proc_1 + w_a8 - w_a7 >= 
       -2591.897553051071
 c241: - 1296 m_a8_proc_1 + w_a6 - w_a8 >= -1295.901918976546
 c242: K_a8_a0 - 1296 m_a0_proc_1 - 1296 m_a8_proc_1 + w_a0 - w_a8 >= 
       -2591.901918976546
 c243: K_a8_a2 - 1296 m_a2_proc_1 - 1296 m_a8_proc_1 + w_a2 - w_a8 >= 
       -2591.901918976546
 c244: K_a8_a3 - 1296 m_a3_proc_1 - 1296 m_a8_proc_1 + w_a3 - w_a8 >= 
       -2591.901918976546
 c245: K_a8_a4 - 1296 m_a4_proc_1 - 1296 m_a8_proc_1 + w_a4 - w_a8 >= 
       -2591.901918976546
 c246: K_a8_a5 - 1296 m_a5_proc_1 - 1296 m_a8_proc_1 + w_a5 - w_a8 >= 
       -2591.901918976546
 c247: K_a8_a6 - 1296 m_a6_proc_1 - 1296 m_a8_proc_1 + w_a6 - w_a8 >= 
       -2591.901918976546
 c248: K_a8_a7 - 1296 m_a7_proc_1 - 1296 m_a8_proc_1 + w_a7 - w_a8 >= 
       -2591.901918976546
 c249: - 1296 m_a9_proc_0 + w_a4 - w_a9 >= -1295.943039902528
 c250: K_a9_a0 - 1296 m_a0_proc_0 - 1296 m_a9_proc_0 + w_a0 - w_a9 >= 
       -2591.943039902528
 c251: K_a9_a1 - 1296 m_a1_proc_0 - 1296 m_a9_proc_0 + w_a1 - w_a9 >= 
       -2591.943039902528
 c252: K_a9_a2 - 1296 m_a2_proc_0 - 1296 m_a9_proc_0 + w_a2 - w_a9 >= 
       -2591.943039902528
 c253: K_a9_a3 - 1296 m_a3_proc_0 - 1296 m_a9_proc_0 + w_a3 - w_a9 >= 
       -2591.943039902528
 c254: K_a9_a4 - 1296 m_a4_proc_0 - 1296 m_a9_proc_0 + w_a4 - w_a9 >= 
       -2591.943039902528
 c255: K_a9_a5 - 1296 m_a5_proc_0 - 1296 m_a9_proc_0 + w_a5 - w_a9 >= 
       -2591.943039902528
 c256: K_a9_a6 - 1296 m_a6_proc_0 - 1296 m_a9_proc_0 + w_a6 - w_a9 >= 
       -2591.943039902528
 c257: K_a9_a7 - 1296 m_a7_proc_0 - 1296 m_a9_proc_0 + w_a7 - w_a9 >= 
       -2591.943039902528
 c258: z - 0.000141702658 K_a4_a7 - 0.000141702658 K_a7_a0
       - 0.000000000630 K_a9_a1 - 0.078078512030 m_a0_proc_0
       + 0.183646645041 m_a0_proc_1 + 0.000000817012 m_a1_proc_0
       - 0.037409668196 m_a3_proc_1 - 0.150913417361 m_a4_proc_0
       + 0.183646645041 m_a4_proc_1 - 0.142977982135 m_a7_proc_0
       + 0.367293290082 m_a7_proc_1 + 0.000000817012 m_a9_proc_0 <= 
       0.734588215449
 c259: z - 0.000142348754 K_a1_a9 + 0.184483985765 m_a1_proc_0
       - 0.090960854093 m_a2_proc_0 - 0.064341637011 m_a5_proc_1
       + 0.184483985765 m_a9_proc_0 <= 0.369110320285
 c260: z - 0.000154202005 K_a9_a1 - 0.084965304549 m_a0_proc_0
       + 0.199845797995 m_a1_proc_0 + 0.199845797995 m_a9_proc_0 <= 
       0.400000000000
 c261: z - 0.000164717509 K_a1_a9 + 0.213473892275 m_a1_proc_0
       - 0.022566298798 m_a4_proc_0 + 0.213473892275 m_a9_proc_0 <= 
       0.427112502059

Bounds
 -inf <= K_a0_a1 <= 1000000000
 -inf <= K_a0_a2 <= 1000000000
 -inf <= K_a0_a3 <= 1000000000
 -inf <= K_a0_a4 <= 1000000000
 -inf <= K_a0_a5 <= 1000000000
 -inf <= K_a0_a6 <= 1000000000
 -inf <= K_a0_a7 <= 1000000000
 -inf <= K_a0_a8 <= 1000000000
 -inf <= K_a0_a9 <= 1000000000
 -inf <= K_a1_a0 <= 1000000000
 -inf <= K_a1_a2 <= 1000000000
 -inf <= K_a1_a3 <= 1000000000
 -inf <= K_a1_a4 <= 1000000000
 -inf <= K_a1_a5 <= 1000000000
 -inf <= K_a1_a6 <= 1000000000
 -inf <= K_a1_a7 <= 1000000000
 -inf <= K_a1_a8 <= 1000000000
 -inf <= K_a1_a9 <= 1000000000
 -inf <= K_a2_a0 <= 1000000000
 -inf <= K_a2_a1 <= 1000000000
 -inf <= K_a2_a3 <= 1000000000
 -inf <= K_a2_a4 <= 1000000000
 -inf <= K_a2_a5 <= 1000000000
 -inf <= K_a2_a6 <= 1000000000
 -inf <= K_a2_a7 <= 1000000000
 -inf <= K_a2_a8 <= 1000000000
 -inf <= K_a2_a9 <= 1000000000
 -inf <= K_a3_a0 <= 1000000000
 -inf <= K_a3_a1 <= 1000000000
 -inf <= K_a3_a2 <= 1000000000
 -inf <= K_a3_a4 <= 1000000000
 -inf <= K_a3_a5 <= 1000000000
 -inf <= K_a3_a6 <= 1000000000
 -inf <= K_a3_a7 <= 1000000000
 -inf <= K_a3_a8 <= 1000000000
 -inf <= K_a3_a9 <= 1000000000
 -inf <= K_a4_a0 <= 1000000000
 -inf <= K_a4_a1 <= 1000000000
 -inf <= K_a4_a2 <= 1000000000
 -inf <= K_a4_a3 <= 1000000000
 -inf <= K_a4_a5 <= 1000000000
 -inf <= K_a4_a6 <= 1000000000
 -inf <= K_a4_a7 <= 1000000000
 -inf <= K_a4_a8 <= 1000000000
 -inf <= K_a4_a9 <= 1000000000
 -inf <= K_a5_a0 <= 1000000000
 -inf <= K_a5_a1 <= 1000000000
 -inf <= K_a5_a2 <= 1000000000
 -inf <= K_a5_a3 <= 1000000000
 -inf <= K_a5_a4 <= 1000000000
 -inf <= K_a5_a6 <= 1000000000
 -inf <= K_a5_a7 <= 1000000000
 -inf <= K_a5_a8 <= 1000000000
 -inf <= K_a5_a9 <= 1000000000
 -inf <= K_a6_a0 <= 1000000000
 -inf <= K_a6_a1 <= 1000000000
 -inf <= K_a6_a2 <= 1000000000
 -inf <= K_a6_a3 <= 1000000000
 -inf <= K_a6_a4 <= 1000000000
 -inf <= K_a6_a5 <= 1000000000
 -inf <= K_a6_a7 <= 1000000000
 -inf <= K_a6_a8 <= 1000000000
 -inf <= K_a6_a9 <= 1000000000
 -inf <= K_a7_a0 <= 1000000000
 -inf <= K_a7_a1 <= 1000000000
 -inf <= K_a7_a2 <= 1000000000
 -inf <= K_a7_a3 <= 1000000000
 -inf <= K_a7_a4 <= 1000000000
 -inf <= K_a7_a5 <= 1000000000
 -inf <= K_a7_a6 <= 1000000000
 -inf <= K_a7_a8 <= 1000000000
 -inf <= K_a7_a9 <= 1000000000
 -inf <= K_a8_a0 <= 1000000000
 -inf <= K_a8_a1 <= 1000000000
 -inf <= K_a8_a2 <= 1000000000
 -inf <= K_a8_a3 <= 1000000000
 -inf <= K_a8_a4 <= 1000000000
 -inf <= K_a8_a5 <= 1000000000
 -inf <= K_a8_a6 <= 1000000000
 -inf <= K_a8_a7 <= 1000000000
 -inf <= K_a8_a9 <= 1000000000
 -inf <= K_a9_a0 <= 1000000000
 -inf <= K_a9_a1 <= 1000000000
 -inf <= K_a9_a2 <= 1000000000
 -inf <= K_a9_a3 <= 1000000000
 -inf <= K_a9_a4 <= 1000000000
 -inf <= K_a9_a5 <= 1000000000
 -inf <= K_a9_a6 <= 1000000000
 -inf <= K_a9_a7 <= 1000000000
 -inf <= K_a9_a8 <= 1000000000
 0 <= m_a0_proc_0 <= 1
 0 <= m_a0_proc_1 <= 1
 0 <= m_a1_proc_0 <= 1
 0 <= m_a2_proc_0 <= 1
 0 <= m_a2_proc_1 <= 1
 0 <= m_a3_proc_0 <= 1
 0 <= m_a3_proc_1 <= 1
 0 <= m_a4_proc_0 <= 1
 0 <= m_a4_proc_1 <= 1
 0 <= m_a5_proc_0 <= 1
 0 <= m_a5_proc_1 <= 1
 0 <= m_a6_proc_0 <= 1
 0 <= m_a6_proc_1 <= 1
 0 <= m_a7_proc_0 <= 1
 0 <= m_a7_proc_1 <= 1
 0 <= m_a8_proc_1 <= 1
 0 <= m_a9_proc_0 <= 1

Binaries
 m_a0_proc_0 m_a0_proc_1 m_a1_proc_0 m_a2_proc_0 m_a2_proc_1 m_a3_proc_0
 m_a3_proc_1 m_a4_proc_0 m_a4_proc_1 m_a5_proc_0 m_a5_proc_1 m_a6_proc_0
 m_a6_proc_1 m_a7_proc_0 m_a7_proc_1 m_a8_proc_1 m_a9_proc_0

Generals
 K_a0_a1 K_a0_a2 K_a0_a3 K_a0_a4 K_a0_a5 K_a0_a6 K_a0_a7 K_a0_a8 K_a0_a9 K_a1_a0
 K_a1_a2 K_a1_a3 K_a1_a4 K_a1_a5 K_a1_a6 K_a1_a7 K_a1_a8 K_a1_a9 K_a2_a0 K_a2_a1
 K_a2_a3 K_a2_a4 K_a2_a5 K_a2_a6 K_a2_a7 K_a2_a8 K_a2_a9 K_a3_a0 K_a3_a1 K_a3_a2
 K_a3_a4 K_a3_a5 K_a3_a6 K_a3_a7 K_a3_a8 K_a3_a9 K_a4_a0 K_a4_a1 K_a4_a2 K_a4_a3
 K_a4_a5 K_a4_a6 K_a4_a7 K_a4_a8 K_a4_a9 K_a5_a0 K_a5_a1 K_a5_a2 K_a5_a3 K_a5_a4
 K_a5_a6 K_a5_a7 K_a5_a8 K_a5_a9 K_a6_a0 K_a6_a1 K_a6_a2 K_a6_a3 K_a6_a4 K_a6_a5
 K_a6_a7 K_a6_a8 K_a6_a9 K_a7_a0 K_a7_a1 K_a7_a2 K_a7_a3 K_a7_a4 K_a7_a5 K_a7_a6
 K_a7_a8 K_a7_a9 K_a8_a0 K_a8_a1 K_a8_a2 K_a8_a3 K_a8_a4 K_a8_a5 K_a8_a6 K_a8_a7
 K_a8_a9 K_a9_a0 K_a9_a1 K_a9_a2 K_a9_a3 K_a9_a4 K_a9_a5 K_a9_a6 K_a9_a7 K_a9_a8
End
