benchmark/results/graph__10-1000-0.10-02_2/error_log/graph__10-1000-0.10-02_2_Quinton_Benders_master_ERRORLOG.txt
solution for: Quinton Benders_master
objective: 0.0230605
status: OPTIMAL_SOLUTION(2)
K_a0_a2=1296
K_a0_a3=1296
K_a0_a5=1296
K_a0_a7=-999998703
K_a0_a8=1296
K_a0_a9=1
K_a1_a0=1
K_a1_a2=1297
K_a1_a3=1297
K_a1_a4=1
K_a1_a5=1297
K_a1_a6=1
K_a1_a7=-999998702
K_a1_a8=1000000000
K_a1_a9=2
K_a2_a0=-1295
K_a2_a1=-1296
K_a2_a3=1
K_a2_a4=1296
K_a2_a5=1
K_a2_a6=1297
K_a2_a7=-999997406
K_a2_a8=1
K_a2_a9=1297
K_a3_a0=-1295
K_a3_a1=-1296
K_a3_a4=1296
K_a3_a6=1297
K_a3_a7=-999997406
K_a3_a8=1
K_a3_a9=1297
K_a4_a0=1
K_a4_a2=-1295
K_a4_a3=-1295
K_a4_a5=1297
K_a4_a6=1
K_a4_a7=-999998702
K_a4_a8=1297
K_a4_a9=1
K_a5_a0=-1295
K_a5_a1=-1296
K_a5_a3=1
K_a5_a4=-1296
K_a5_a6=1297
K_a5_a7=-999997406
K_a5_a8=1
K_a5_a9=1297
K_a6_a0=1
K_a6_a2=-1296
K_a6_a3=-1296
K_a6_a5=-1296
K_a6_a7=-999998702
K_a6_a8=1297
K_a6_a9=1
K_a7_a0=999998704
K_a7_a1=999998703
K_a7_a2=999997407
K_a7_a3=999997407
K_a7_a4=999998703
K_a7_a5=999997407
K_a7_a6=999998703
K_a7_a8=999999999
K_a7_a9=999998704
K_a8_a0=-1295
K_a8_a1=1000000000
K_a8_a4=-1296
K_a8_a6=-1296
K_a8_a7=-999999998
K_a8_a9=1000000000
K_a9_a1=-1
K_a9_a2=-1296
K_a9_a3=-1296
K_a9_a5=-1296
K_a9_a7=-999998703
K_a9_a8=1000000000
m_a0_proc_0=1
m_a1_proc_0=1
m_a2_proc_1=1
m_a3_proc_1=1
m_a4_proc_0=1
m_a5_proc_1=1
m_a6_proc_0=1
m_a7_proc_0=1
m_a8_proc_1=1
m_a9_proc_0=1
z=0.023
w_a0=0.085
w_a1=1.057
w_a2=0.774
w_a3=0.624
w_a4=0.906
w_a5=0.706
w_a6=0.504
w_a7=999998703.390
w_a8=0.406
